code/vi_44_39_0-1-.lp
\ LP format - for model browsing. Use MPS format to capture full model detail.
Minimize
  - C
Subject To
 time(1,1): x(1,1,0) + x(1,1,1) + x(1,1,2) + x(1,1,3) + x(1,1,4) + x(1,1,5)
   + x(1,1,6) + x(1,1,7) + x(1,1,8) + x(1,1,9) + x(1,1,10) + x(1,1,11)
   + x(1,1,12) + x(1,1,13) + x(1,1,14) + x(1,1,15) = 1
 time(1,2): x(2,1,0) + x(2,1,1) + x(2,1,2) + x(2,1,3) + x(2,1,4) + x(2,1,5)
   + x(2,1,6) + x(2,1,7) + x(2,1,8) + x(2,1,9) + x(2,1,10) + x(2,1,11)
   + x(2,1,12) + x(2,1,13) + x(2,1,14) + x(2,1,15) + x(2,1,16) + x(2,1,17)
   + x(2,1,18) = 1
 time(2,1): x(1,2,17) + x(1,2,18) + x(1,2,19) + x(1,2,20) + x(1,2,21)
   + x(1,2,22) + x(1,2,23) + x(1,2,24) + x(1,2,25) + x(1,2,26) + x(1,2,27)
   + x(1,2,28) + x(1,2,29) + x(1,2,30) + x(1,2,31) + x(1,2,32) = 1
 time(2,2): x(2,2,8) + x(2,2,9) + x(2,2,10) + x(2,2,11) + x(2,2,12)
   + x(2,2,13) + x(2,2,14) + x(2,2,15) + x(2,2,16) + x(2,2,17) + x(2,2,18)
   + x(2,2,19) + x(2,2,20) + x(2,2,21) + x(2,2,22) + x(2,2,23) + x(2,2,24)
   + x(2,2,25) + x(2,2,26) = 1
 time(3,1): x(1,3,11) + x(1,3,12) + x(1,3,13) + x(1,3,14) + x(1,3,15)
   + x(1,3,16) + x(1,3,17) + x(1,3,18) + x(1,3,19) + x(1,3,20) + x(1,3,21)
   + x(1,3,22) + x(1,3,23) + x(1,3,24) + x(1,3,25) + x(1,3,26) = 1
 time(3,2): x(2,3,13) + x(2,3,14) + x(2,3,15) + x(2,3,16) + x(2,3,17)
   + x(2,3,18) + x(2,3,19) + x(2,3,20) + x(2,3,21) + x(2,3,22) + x(2,3,23)
   + x(2,3,24) + x(2,3,25) + x(2,3,26) + x(2,3,27) + x(2,3,28) + x(2,3,29)
   + x(2,3,30) + x(2,3,31) = 1
 time(4,1): x(1,4,10) + x(1,4,11) + x(1,4,12) + x(1,4,13) + x(1,4,14)
   + x(1,4,15) + x(1,4,16) + x(1,4,17) + x(1,4,18) + x(1,4,19) + x(1,4,20)
   + x(1,4,21) + x(1,4,22) + x(1,4,23) + x(1,4,24) + x(1,4,25) = 1
 time(4,2): x(2,4,1) + x(2,4,2) + x(2,4,3) + x(2,4,4) + x(2,4,5) + x(2,4,6)
   + x(2,4,7) + x(2,4,8) + x(2,4,9) + x(2,4,10) + x(2,4,11) + x(2,4,12)
   + x(2,4,13) + x(2,4,14) + x(2,4,15) + x(2,4,16) + x(2,4,17) + x(2,4,18)
   + x(2,4,19) = 1
 processing(1,0): x(1,1,0) + x(2,1,0) <= 1
 processing(1,1): x(1,1,0) + x(1,1,1) + x(2,1,1) <= 1
 processing(1,2): x(1,1,0) + x(1,1,1) + x(1,1,2) + x(2,1,2) <= 1
 processing(1,3): x(1,1,0) + x(1,1,1) + x(1,1,2) + x(1,1,3) + x(2,1,3)
   <= 1
 processing(1,4): x(1,1,0) + x(1,1,1) + x(1,1,2) + x(1,1,3) + x(1,1,4)
   + x(2,1,4) <= 1
 processing(1,5): x(1,1,0) + x(1,1,1) + x(1,1,2) + x(1,1,3) + x(1,1,4)
   + x(1,1,5) + x(2,1,5) <= 1
 processing(1,6): x(1,1,0) + x(1,1,1) + x(1,1,2) + x(1,1,3) + x(1,1,4)
   + x(1,1,5) + x(1,1,6) + x(2,1,6) <= 1
 processing(1,7): x(1,1,0) + x(1,1,1) + x(1,1,2) + x(1,1,3) + x(1,1,4)
   + x(1,1,5) + x(1,1,6) + x(1,1,7) + x(2,1,7) <= 1
 processing(1,8): x(1,1,0) + x(1,1,1) + x(1,1,2) + x(1,1,3) + x(1,1,4)
   + x(1,1,5) + x(1,1,6) + x(1,1,7) + x(1,1,8) + x(2,1,8) <= 1
 processing(1,9): x(1,1,0) + x(1,1,1) + x(1,1,2) + x(1,1,3) + x(1,1,4)
   + x(1,1,5) + x(1,1,6) + x(1,1,7) + x(1,1,8) + x(1,1,9) + x(2,1,9) <= 1
 processing(1,10): x(1,1,1) + x(1,1,2) + x(1,1,3) + x(1,1,4) + x(1,1,5)
   + x(1,1,6) + x(1,1,7) + x(1,1,8) + x(1,1,9) + x(1,1,10) + x(2,1,10)
   <= 1
 processing(1,11): x(1,1,2) + x(1,1,3) + x(1,1,4) + x(1,1,5) + x(1,1,6)
   + x(1,1,7) + x(1,1,8) + x(1,1,9) + x(1,1,10) + x(1,1,11) + x(2,1,11)
   <= 1
 processing(1,12): x(1,1,3) + x(1,1,4) + x(1,1,5) + x(1,1,6) + x(1,1,7)
   + x(1,1,8) + x(1,1,9) + x(1,1,10) + x(1,1,11) + x(1,1,12) + x(2,1,12)
   <= 1
 processing(1,13): x(1,1,4) + x(1,1,5) + x(1,1,6) + x(1,1,7) + x(1,1,8)
   + x(1,1,9) + x(1,1,10) + x(1,1,11) + x(1,1,12) + x(1,1,13) + x(2,1,13)
   <= 1
 processing(1,14): x(1,1,5) + x(1,1,6) + x(1,1,7) + x(1,1,8) + x(1,1,9)
   + x(1,1,10) + x(1,1,11) + x(1,1,12) + x(1,1,13) + x(1,1,14) + x(2,1,14)
   <= 1
 processing(1,15): x(1,1,6) + x(1,1,7) + x(1,1,8) + x(1,1,9) + x(1,1,10)
   + x(1,1,11) + x(1,1,12) + x(1,1,13) + x(1,1,14) + x(1,1,15) + x(2,1,15)
   <= 1
 processing(1,16): x(1,1,7) + x(1,1,8) + x(1,1,9) + x(1,1,10) + x(1,1,11)
   + x(1,1,12) + x(1,1,13) + x(1,1,14) + x(1,1,15) + x(2,1,16) <= 1
 processing(1,17): x(1,1,8) + x(1,1,9) + x(1,1,10) + x(1,1,11) + x(1,1,12)
   + x(1,1,13) + x(1,1,14) + x(1,1,15) + x(2,1,17) <= 1
 processing(1,18): x(1,1,9) + x(1,1,10) + x(1,1,11) + x(1,1,12) + x(1,1,13)
   + x(1,1,14) + x(1,1,15) + x(2,1,18) <= 1
 processing(1,19): x(1,1,10) + x(1,1,11) + x(1,1,12) + x(1,1,13)
   + x(1,1,14) + x(1,1,15) <= 1
 processing(1,20): x(1,1,11) + x(1,1,12) + x(1,1,13) + x(1,1,14)
   + x(1,1,15) <= 1
 processing(1,21): x(1,1,12) + x(1,1,13) + x(1,1,14) + x(1,1,15) <= 1
 processing(1,22): x(1,1,13) + x(1,1,14) + x(1,1,15) <= 1
 processing(1,23): x(1,1,14) + x(1,1,15) <= 1
 processing(1,24): x(1,1,15) <= 1
 processing(1,25): <= 1
 processing(1,26): <= 1
 processing(1,27): <= 1
 processing(1,28): <= 1
 processing(1,29): <= 1
 processing(1,30): <= 1
 processing(1,31): <= 1
 processing(1,32): <= 1
 processing(1,33): <= 1
 processing(1,34): <= 1
 processing(1,35): <= 1
 processing(1,36): <= 1
 processing(1,37): <= 1
 processing(1,38): <= 1
 processing(2,0): <= 1
 processing(2,1): <= 1
 processing(2,2): <= 1
 processing(2,3): <= 1
 processing(2,4): <= 1
 processing(2,5): <= 1
 processing(2,6): <= 1
 processing(2,7): <= 1
 processing(2,8): x(2,2,8) <= 1
 processing(2,9): x(2,2,8) + x(2,2,9) <= 1
 processing(2,10): x(2,2,8) + x(2,2,9) + x(2,2,10) <= 1
 processing(2,11): x(2,2,8) + x(2,2,9) + x(2,2,10) + x(2,2,11) <= 1
 processing(2,12): x(2,2,8) + x(2,2,9) + x(2,2,10) + x(2,2,11) + x(2,2,12)
   <= 1
 processing(2,13): x(2,2,9) + x(2,2,10) + x(2,2,11) + x(2,2,12) + x(2,2,13)
   <= 1
 processing(2,14): x(2,2,10) + x(2,2,11) + x(2,2,12) + x(2,2,13)
   + x(2,2,14) <= 1
 processing(2,15): x(2,2,11) + x(2,2,12) + x(2,2,13) + x(2,2,14)
   + x(2,2,15) <= 1
 processing(2,16): x(2,2,12) + x(2,2,13) + x(2,2,14) + x(2,2,15)
   + x(2,2,16) <= 1
 processing(2,17): x(1,2,17) + x(2,2,13) + x(2,2,14) + x(2,2,15)
   + x(2,2,16) + x(2,2,17) <= 1
 processing(2,18): x(1,2,17) + x(1,2,18) + x(2,2,14) + x(2,2,15)
   + x(2,2,16) + x(2,2,17) + x(2,2,18) <= 1
 processing(2,19): x(1,2,17) + x(1,2,18) + x(1,2,19) + x(2,2,15)
   + x(2,2,16) + x(2,2,17) + x(2,2,18) + x(2,2,19) <= 1
 processing(2,20): x(1,2,17) + x(1,2,18) + x(1,2,19) + x(1,2,20)
   + x(2,2,16) + x(2,2,17) + x(2,2,18) + x(2,2,19) + x(2,2,20) <= 1
 processing(2,21): x(1,2,17) + x(1,2,18) + x(1,2,19) + x(1,2,20)
   + x(1,2,21) + x(2,2,17) + x(2,2,18) + x(2,2,19) + x(2,2,20) + x(2,2,21)
   <= 1
 processing(2,22): x(1,2,17) + x(1,2,18) + x(1,2,19) + x(1,2,20)
   + x(1,2,21) + x(1,2,22) + x(2,2,18) + x(2,2,19) + x(2,2,20) + x(2,2,21)
   + x(2,2,22) <= 1
 processing(2,23): x(1,2,17) + x(1,2,18) + x(1,2,19) + x(1,2,20)
   + x(1,2,21) + x(1,2,22) + x(1,2,23) + x(2,2,19) + x(2,2,20) + x(2,2,21)
   + x(2,2,22) + x(2,2,23) <= 1
 processing(2,24): x(1,2,18) + x(1,2,19) + x(1,2,20) + x(1,2,21)
   + x(1,2,22) + x(1,2,23) + x(1,2,24) + x(2,2,20) + x(2,2,21) + x(2,2,22)
   + x(2,2,23) + x(2,2,24) <= 1
 processing(2,25): x(1,2,19) + x(1,2,20) + x(1,2,21) + x(1,2,22)
   + x(1,2,23) + x(1,2,24) + x(1,2,25) + x(2,2,21) + x(2,2,22) + x(2,2,23)
   + x(2,2,24) + x(2,2,25) <= 1
 processing(2,26): x(1,2,20) + x(1,2,21) + x(1,2,22) + x(1,2,23)
   + x(1,2,24) + x(1,2,25) + x(1,2,26) + x(2,2,22) + x(2,2,23) + x(2,2,24)
   + x(2,2,25) + x(2,2,26) <= 1
 processing(2,27): x(1,2,21) + x(1,2,22) + x(1,2,23) + x(1,2,24)
   + x(1,2,25) + x(1,2,26) + x(1,2,27) + x(2,2,23) + x(2,2,24) + x(2,2,25)
   + x(2,2,26) <= 1
 processing(2,28): x(1,2,22) + x(1,2,23) + x(1,2,24) + x(1,2,25)
   + x(1,2,26) + x(1,2,27) + x(1,2,28) + x(2,2,24) + x(2,2,25) + x(2,2,26)
   <= 1
 processing(2,29): x(1,2,23) + x(1,2,24) + x(1,2,25) + x(1,2,26)
   + x(1,2,27) + x(1,2,28) + x(1,2,29) + x(2,2,25) + x(2,2,26) <= 1
 processing(2,30): x(1,2,24) + x(1,2,25) + x(1,2,26) + x(1,2,27)
   + x(1,2,28) + x(1,2,29) + x(1,2,30) + x(2,2,26) <= 1
 processing(2,31): x(1,2,25) + x(1,2,26) + x(1,2,27) + x(1,2,28)
   + x(1,2,29) + x(1,2,30) + x(1,2,31) <= 1
 processing(2,32): x(1,2,26) + x(1,2,27) + x(1,2,28) + x(1,2,29)
   + x(1,2,30) + x(1,2,31) + x(1,2,32) <= 1
 processing(2,33): x(1,2,27) + x(1,2,28) + x(1,2,29) + x(1,2,30)
   + x(1,2,31) + x(1,2,32) <= 1
 processing(2,34): x(1,2,28) + x(1,2,29) + x(1,2,30) + x(1,2,31)
   + x(1,2,32) <= 1
 processing(2,35): x(1,2,29) + x(1,2,30) + x(1,2,31) + x(1,2,32) <= 1
 processing(2,36): x(1,2,30) + x(1,2,31) + x(1,2,32) <= 1
 processing(2,37): x(1,2,31) + x(1,2,32) <= 1
 processing(2,38): x(1,2,32) <= 1
 processing(3,0): <= 1
 processing(3,1): <= 1
 processing(3,2): <= 1
 processing(3,3): <= 1
 processing(3,4): <= 1
 processing(3,5): <= 1
 processing(3,6): <= 1
 processing(3,7): <= 1
 processing(3,8): <= 1
 processing(3,9): <= 1
 processing(3,10): <= 1
 processing(3,11): x(1,3,11) <= 1
 processing(3,12): x(1,3,11) + x(1,3,12) <= 1
 processing(3,13): x(1,3,11) + x(1,3,12) + x(1,3,13) + x(2,3,13) <= 1
 processing(3,14): x(1,3,11) + x(1,3,12) + x(1,3,13) + x(1,3,14)
   + x(2,3,13) + x(2,3,14) <= 1
 processing(3,15): x(1,3,11) + x(1,3,12) + x(1,3,13) + x(1,3,14)
   + x(1,3,15) + x(2,3,13) + x(2,3,14) + x(2,3,15) <= 1
 processing(3,16): x(1,3,11) + x(1,3,12) + x(1,3,13) + x(1,3,14)
   + x(1,3,15) + x(1,3,16) + x(2,3,13) + x(2,3,14) + x(2,3,15) + x(2,3,16)
   <= 1
 processing(3,17): x(1,3,12) + x(1,3,13) + x(1,3,14) + x(1,3,15)
   + x(1,3,16) + x(1,3,17) + x(2,3,13) + x(2,3,14) + x(2,3,15) + x(2,3,16)
   + x(2,3,17) <= 1
 processing(3,18): x(1,3,13) + x(1,3,14) + x(1,3,15) + x(1,3,16)
   + x(1,3,17) + x(1,3,18) + x(2,3,13) + x(2,3,14) + x(2,3,15) + x(2,3,16)
   + x(2,3,17) + x(2,3,18) <= 1
 processing(3,19): x(1,3,14) + x(1,3,15) + x(1,3,16) + x(1,3,17)
   + x(1,3,18) + x(1,3,19) + x(2,3,13) + x(2,3,14) + x(2,3,15) + x(2,3,16)
   + x(2,3,17) + x(2,3,18) + x(2,3,19) <= 1
 processing(3,20): x(1,3,15) + x(1,3,16) + x(1,3,17) + x(1,3,18)
   + x(1,3,19) + x(1,3,20) + x(2,3,13) + x(2,3,14) + x(2,3,15) + x(2,3,16)
   + x(2,3,17) + x(2,3,18) + x(2,3,19) + x(2,3,20) <= 1
 processing(3,21): x(1,3,16) + x(1,3,17) + x(1,3,18) + x(1,3,19)
   + x(1,3,20) + x(1,3,21) + x(2,3,14) + x(2,3,15) + x(2,3,16) + x(2,3,17)
   + x(2,3,18) + x(2,3,19) + x(2,3,20) + x(2,3,21) <= 1
 processing(3,22): x(1,3,17) + x(1,3,18) + x(1,3,19) + x(1,3,20)
   + x(1,3,21) + x(1,3,22) + x(2,3,15) + x(2,3,16) + x(2,3,17) + x(2,3,18)
   + x(2,3,19) + x(2,3,20) + x(2,3,21) + x(2,3,22) <= 1
 processing(3,23): x(1,3,18) + x(1,3,19) + x(1,3,20) + x(1,3,21)
   + x(1,3,22) + x(1,3,23) + x(2,3,16) + x(2,3,17) + x(2,3,18) + x(2,3,19)
   + x(2,3,20) + x(2,3,21) + x(2,3,22) + x(2,3,23) <= 1
 processing(3,24): x(1,3,19) + x(1,3,20) + x(1,3,21) + x(1,3,22)
   + x(1,3,23) + x(1,3,24) + x(2,3,17) + x(2,3,18) + x(2,3,19) + x(2,3,20)
   + x(2,3,21) + x(2,3,22) + x(2,3,23) + x(2,3,24) <= 1
 processing(3,25): x(1,3,20) + x(1,3,21) + x(1,3,22) + x(1,3,23)
   + x(1,3,24) + x(1,3,25) + x(2,3,18) + x(2,3,19) + x(2,3,20) + x(2,3,21)
   + x(2,3,22) + x(2,3,23) + x(2,3,24) + x(2,3,25) <= 1
 processing(3,26): x(1,3,21) + x(1,3,22) + x(1,3,23) + x(1,3,24)
   + x(1,3,25) + x(1,3,26) + x(2,3,19) + x(2,3,20) + x(2,3,21) + x(2,3,22)
   + x(2,3,23) + x(2,3,24) + x(2,3,25) + x(2,3,26) <= 1
 processing(3,27): x(1,3,22) + x(1,3,23) + x(1,3,24) + x(1,3,25)
   + x(1,3,26) + x(2,3,20) + x(2,3,21) + x(2,3,22) + x(2,3,23) + x(2,3,24)
   + x(2,3,25) + x(2,3,26) + x(2,3,27) <= 1
 processing(3,28): x(1,3,23) + x(1,3,24) + x(1,3,25) + x(1,3,26)
   + x(2,3,21) + x(2,3,22) + x(2,3,23) + x(2,3,24) + x(2,3,25) + x(2,3,26)
   + x(2,3,27) + x(2,3,28) <= 1
 processing(3,29): x(1,3,24) + x(1,3,25) + x(1,3,26) + x(2,3,22)
   + x(2,3,23) + x(2,3,24) + x(2,3,25) + x(2,3,26) + x(2,3,27) + x(2,3,28)
   + x(2,3,29) <= 1
 processing(3,30): x(1,3,25) + x(1,3,26) + x(2,3,23) + x(2,3,24)
   + x(2,3,25) + x(2,3,26) + x(2,3,27) + x(2,3,28) + x(2,3,29) + x(2,3,30)
   <= 1
 processing(3,31): x(1,3,26) + x(2,3,24) + x(2,3,25) + x(2,3,26)
   + x(2,3,27) + x(2,3,28) + x(2,3,29) + x(2,3,30) + x(2,3,31) <= 1
 processing(3,32): x(2,3,25) + x(2,3,26) + x(2,3,27) + x(2,3,28)
   + x(2,3,29) + x(2,3,30) + x(2,3,31) <= 1
 processing(3,33): x(2,3,26) + x(2,3,27) + x(2,3,28) + x(2,3,29)
   + x(2,3,30) + x(2,3,31) <= 1
 processing(3,34): x(2,3,27) + x(2,3,28) + x(2,3,29) + x(2,3,30)
   + x(2,3,31) <= 1
 processing(3,35): x(2,3,28) + x(2,3,29) + x(2,3,30) + x(2,3,31) <= 1
 processing(3,36): x(2,3,29) + x(2,3,30) + x(2,3,31) <= 1
 processing(3,37): x(2,3,30) + x(2,3,31) <= 1
 processing(3,38): x(2,3,31) <= 1
 processing(4,0): <= 1
 processing(4,1): x(2,4,1) <= 1
 processing(4,2): x(2,4,1) + x(2,4,2) <= 1
 processing(4,3): x(2,4,1) + x(2,4,2) + x(2,4,3) <= 1
 processing(4,4): x(2,4,1) + x(2,4,2) + x(2,4,3) + x(2,4,4) <= 1
 processing(4,5): x(2,4,1) + x(2,4,2) + x(2,4,3) + x(2,4,4) + x(2,4,5)
   <= 1
 processing(4,6): x(2,4,1) + x(2,4,2) + x(2,4,3) + x(2,4,4) + x(2,4,5)
   + x(2,4,6) <= 1
 processing(4,7): x(2,4,1) + x(2,4,2) + x(2,4,3) + x(2,4,4) + x(2,4,5)
   + x(2,4,6) + x(2,4,7) <= 1
 processing(4,8): x(2,4,2) + x(2,4,3) + x(2,4,4) + x(2,4,5) + x(2,4,6)
   + x(2,4,7) + x(2,4,8) <= 1
 processing(4,9): x(2,4,3) + x(2,4,4) + x(2,4,5) + x(2,4,6) + x(2,4,7)
   + x(2,4,8) + x(2,4,9) <= 1
 processing(4,10): x(1,4,10) + x(2,4,4) + x(2,4,5) + x(2,4,6) + x(2,4,7)
   + x(2,4,8) + x(2,4,9) + x(2,4,10) <= 1
 processing(4,11): x(1,4,11) + x(2,4,5) + x(2,4,6) + x(2,4,7) + x(2,4,8)
   + x(2,4,9) + x(2,4,10) + x(2,4,11) <= 1
 processing(4,12): x(1,4,12) + x(2,4,6) + x(2,4,7) + x(2,4,8) + x(2,4,9)
   + x(2,4,10) + x(2,4,11) + x(2,4,12) <= 1
 processing(4,13): x(1,4,13) + x(2,4,7) + x(2,4,8) + x(2,4,9) + x(2,4,10)
   + x(2,4,11) + x(2,4,12) + x(2,4,13) <= 1
 processing(4,14): x(1,4,14) + x(2,4,8) + x(2,4,9) + x(2,4,10) + x(2,4,11)
   + x(2,4,12) + x(2,4,13) + x(2,4,14) <= 1
 processing(4,15): x(1,4,15) + x(2,4,9) + x(2,4,10) + x(2,4,11) + x(2,4,12)
   + x(2,4,13) + x(2,4,14) + x(2,4,15) <= 1
 processing(4,16): x(1,4,16) + x(2,4,10) + x(2,4,11) + x(2,4,12)
   + x(2,4,13) + x(2,4,14) + x(2,4,15) + x(2,4,16) <= 1
 processing(4,17): x(1,4,17) + x(2,4,11) + x(2,4,12) + x(2,4,13)
   + x(2,4,14) + x(2,4,15) + x(2,4,16) + x(2,4,17) <= 1
 processing(4,18): x(1,4,18) + x(2,4,12) + x(2,4,13) + x(2,4,14)
   + x(2,4,15) + x(2,4,16) + x(2,4,17) + x(2,4,18) <= 1
 processing(4,19): x(1,4,19) + x(2,4,13) + x(2,4,14) + x(2,4,15)
   + x(2,4,16) + x(2,4,17) + x(2,4,18) + x(2,4,19) <= 1
 processing(4,20): x(1,4,20) + x(2,4,14) + x(2,4,15) + x(2,4,16)
   + x(2,4,17) + x(2,4,18) + x(2,4,19) <= 1
 processing(4,21): x(1,4,21) + x(2,4,15) + x(2,4,16) + x(2,4,17)
   + x(2,4,18) + x(2,4,19) <= 1
 processing(4,22): x(1,4,22) + x(2,4,16) + x(2,4,17) + x(2,4,18)
   + x(2,4,19) <= 1
 processing(4,23): x(1,4,23) + x(2,4,17) + x(2,4,18) + x(2,4,19) <= 1
 processing(4,24): x(1,4,24) + x(2,4,18) + x(2,4,19) <= 1
 processing(4,25): x(1,4,25) + x(2,4,19) <= 1
 processing(4,26): <= 1
 processing(4,27): <= 1
 processing(4,28): <= 1
 processing(4,29): <= 1
 processing(4,30): <= 1
 processing(4,31): <= 1
 processing(4,32): <= 1
 processing(4,33): <= 1
 processing(4,34): <= 1
 processing(4,35): <= 1
 processing(4,36): <= 1
 processing(4,37): <= 1
 processing(4,38): <= 1
 ord(4,1): 10 x(1,1,0) + 11 x(1,1,1) + 12 x(1,1,2) + 13 x(1,1,3)
   + 14 x(1,1,4) + 15 x(1,1,5) + 16 x(1,1,6) + 17 x(1,1,7) + 18 x(1,1,8)
   + 19 x(1,1,9) + 20 x(1,1,10) + 21 x(1,1,11) + 22 x(1,1,12)
   + 23 x(1,1,13) + 24 x(1,1,14) + 25 x(1,1,15) - 10 x(1,4,10)
   - 11 x(1,4,11) - 12 x(1,4,12) - 13 x(1,4,13) - 14 x(1,4,14)
   - 15 x(1,4,15) - 16 x(1,4,16) - 17 x(1,4,17) - 18 x(1,4,18)
   - 19 x(1,4,19) - 20 x(1,4,20) - 21 x(1,4,21) - 22 x(1,4,22)
   - 23 x(1,4,23) - 24 x(1,4,24) - 25 x(1,4,25) <= 0
 ord(3,1): - 11 x(1,3,11) - 12 x(1,3,12) - 13 x(1,3,13) - 14 x(1,3,14)
   - 15 x(1,3,15) - 16 x(1,3,16) - 17 x(1,3,17) - 18 x(1,3,18)
   - 19 x(1,3,19) - 20 x(1,3,20) - 21 x(1,3,21) - 22 x(1,3,22)
   - 23 x(1,3,23) - 24 x(1,3,24) - 25 x(1,3,25) - 26 x(1,3,26)
   + 11 x(1,4,10) + 12 x(1,4,11) + 13 x(1,4,12) + 14 x(1,4,13)
   + 15 x(1,4,14) + 16 x(1,4,15) + 17 x(1,4,16) + 18 x(1,4,17)
   + 19 x(1,4,18) + 20 x(1,4,19) + 21 x(1,4,20) + 22 x(1,4,21)
   + 23 x(1,4,22) + 24 x(1,4,23) + 25 x(1,4,24) + 26 x(1,4,25) <= 0
 ord(2,1): - 17 x(1,2,17) - 18 x(1,2,18) - 19 x(1,2,19) - 20 x(1,2,20)
   - 21 x(1,2,21) - 22 x(1,2,22) - 23 x(1,2,23) - 24 x(1,2,24)
   - 25 x(1,2,25) - 26 x(1,2,26) - 27 x(1,2,27) - 28 x(1,2,28)
   - 29 x(1,2,29) - 30 x(1,2,30) - 31 x(1,2,31) - 32 x(1,2,32)
   + 17 x(1,3,11) + 18 x(1,3,12) + 19 x(1,3,13) + 20 x(1,3,14)
   + 21 x(1,3,15) + 22 x(1,3,16) + 23 x(1,3,17) + 24 x(1,3,18)
   + 25 x(1,3,19) + 26 x(1,3,20) + 27 x(1,3,21) + 28 x(1,3,22)
   + 29 x(1,3,23) + 30 x(1,3,24) + 31 x(1,3,25) + 32 x(1,3,26) <= 0
 ord(4,2): x(2,1,0) + 2 x(2,1,1) + 3 x(2,1,2) + 4 x(2,1,3) + 5 x(2,1,4)
   + 6 x(2,1,5) + 7 x(2,1,6) + 8 x(2,1,7) + 9 x(2,1,8) + 10 x(2,1,9)
   + 11 x(2,1,10) + 12 x(2,1,11) + 13 x(2,1,12) + 14 x(2,1,13)
   + 15 x(2,1,14) + 16 x(2,1,15) + 17 x(2,1,16) + 18 x(2,1,17)
   + 19 x(2,1,18) - x(2,4,1) - 2 x(2,4,2) - 3 x(2,4,3) - 4 x(2,4,4)
   - 5 x(2,4,5) - 6 x(2,4,6) - 7 x(2,4,7) - 8 x(2,4,8) - 9 x(2,4,9)
   - 10 x(2,4,10) - 11 x(2,4,11) - 12 x(2,4,12) - 13 x(2,4,13)
   - 14 x(2,4,14) - 15 x(2,4,15) - 16 x(2,4,16) - 17 x(2,4,17)
   - 18 x(2,4,18) - 19 x(2,4,19) <= 0
 ord(2,2): - 8 x(2,2,8) - 9 x(2,2,9) - 10 x(2,2,10) - 11 x(2,2,11)
   - 12 x(2,2,12) - 13 x(2,2,13) - 14 x(2,2,14) - 15 x(2,2,15)
   - 16 x(2,2,16) - 17 x(2,2,17) - 18 x(2,2,18) - 19 x(2,2,19)
   - 20 x(2,2,20) - 21 x(2,2,21) - 22 x(2,2,22) - 23 x(2,2,23)
   - 24 x(2,2,24) - 25 x(2,2,25) - 26 x(2,2,26) + 8 x(2,4,1) + 9 x(2,4,2)
   + 10 x(2,4,3) + 11 x(2,4,4) + 12 x(2,4,5) + 13 x(2,4,6) + 14 x(2,4,7)
   + 15 x(2,4,8) + 16 x(2,4,9) + 17 x(2,4,10) + 18 x(2,4,11) + 19 x(2,4,12)
   + 20 x(2,4,13) + 21 x(2,4,14) + 22 x(2,4,15) + 23 x(2,4,16)
   + 24 x(2,4,17) + 25 x(2,4,18) + 26 x(2,4,19) <= 0
 ord(3,2): 13 x(2,2,8) + 14 x(2,2,9) + 15 x(2,2,10) + 16 x(2,2,11)
   + 17 x(2,2,12) + 18 x(2,2,13) + 19 x(2,2,14) + 20 x(2,2,15)
   + 21 x(2,2,16) + 22 x(2,2,17) + 23 x(2,2,18) + 24 x(2,2,19)
   + 25 x(2,2,20) + 26 x(2,2,21) + 27 x(2,2,22) + 28 x(2,2,23)
   + 29 x(2,2,24) + 30 x(2,2,25) + 31 x(2,2,26) - 13 x(2,3,13)
   - 14 x(2,3,14) - 15 x(2,3,15) - 16 x(2,3,16) - 17 x(2,3,17)
   - 18 x(2,3,18) - 19 x(2,3,19) - 20 x(2,3,20) - 21 x(2,3,21)
   - 22 x(2,3,22) - 23 x(2,3,23) - 24 x(2,3,24) - 25 x(2,3,25)
   - 26 x(2,3,26) - 27 x(2,3,27) - 28 x(2,3,28) - 29 x(2,3,29)
   - 30 x(2,3,30) - 31 x(2,3,31) <= 0
 makespan(1,1): - 10 x(1,1,0) - 11 x(1,1,1) - 12 x(1,1,2) - 13 x(1,1,3)
   - 14 x(1,1,4) - 15 x(1,1,5) - 16 x(1,1,6) - 17 x(1,1,7) - 18 x(1,1,8)
   - 19 x(1,1,9) - 20 x(1,1,10) - 21 x(1,1,11) - 22 x(1,1,12)
   - 23 x(1,1,13) - 24 x(1,1,14) - 25 x(1,1,15) + C = 0
Bounds
Generals
 x(1,1,0) x(1,1,1) x(1,1,2) x(1,1,3) x(1,1,4) x(1,1,5) x(1,1,6) x(1,1,7)
 x(1,1,8) x(1,1,9) x(1,1,10) x(1,1,11) x(1,1,12) x(1,1,13) x(1,1,14)
 x(1,1,15) x(2,1,0) x(2,1,1) x(2,1,2) x(2,1,3) x(2,1,4) x(2,1,5) x(2,1,6)
 x(2,1,7) x(2,1,8) x(2,1,9) x(2,1,10) x(2,1,11) x(2,1,12) x(2,1,13)
 x(2,1,14) x(2,1,15) x(2,1,16) x(2,1,17) x(2,1,18) x(1,2,17) x(1,2,18)
 x(1,2,19) x(1,2,20) x(1,2,21) x(1,2,22) x(1,2,23) x(1,2,24) x(1,2,25)
 x(1,2,26) x(1,2,27) x(1,2,28) x(1,2,29) x(1,2,30) x(1,2,31) x(1,2,32)
 x(2,2,8) x(2,2,9) x(2,2,10) x(2,2,11) x(2,2,12) x(2,2,13) x(2,2,14)
 x(2,2,15) x(2,2,16) x(2,2,17) x(2,2,18) x(2,2,19) x(2,2,20) x(2,2,21)
 x(2,2,22) x(2,2,23) x(2,2,24) x(2,2,25) x(2,2,26) x(1,3,11) x(1,3,12)
 x(1,3,13) x(1,3,14) x(1,3,15) x(1,3,16) x(1,3,17) x(1,3,18) x(1,3,19)
 x(1,3,20) x(1,3,21) x(1,3,22) x(1,3,23) x(1,3,24) x(1,3,25) x(1,3,26)
 x(2,3,13) x(2,3,14) x(2,3,15) x(2,3,16) x(2,3,17) x(2,3,18) x(2,3,19)
 x(2,3,20) x(2,3,21) x(2,3,22) x(2,3,23) x(2,3,24) x(2,3,25) x(2,3,26)
 x(2,3,27) x(2,3,28) x(2,3,29) x(2,3,30) x(2,3,31) x(1,4,10) x(1,4,11)
 x(1,4,12) x(1,4,13) x(1,4,14) x(1,4,15) x(1,4,16) x(1,4,17) x(1,4,18)
 x(1,4,19) x(1,4,20) x(1,4,21) x(1,4,22) x(1,4,23) x(1,4,24) x(1,4,25)
 x(2,4,1) x(2,4,2) x(2,4,3) x(2,4,4) x(2,4,5) x(2,4,6) x(2,4,7) x(2,4,8)
 x(2,4,9) x(2,4,10) x(2,4,11) x(2,4,12) x(2,4,13) x(2,4,14) x(2,4,15)
 x(2,4,16) x(2,4,17) x(2,4,18) x(2,4,19) C
End
