code/vi_44_39_0-1-.sol
Optimal (within gap tolerance) - objective value -25 - solution time 0
15 x(1,1,15) 1 0
16 x(2,1,0) 1 0
50 x(1,2,32) 1 0
55 x(2,2,12) 1 0
85 x(1,3,26) 1 0
90 x(2,3,17) 1 0
120 x(1,4,25) 1 0
121 x(2,4,1) 1 0
140 C 25 -1
